; chc-comp19-benchmarks/./lia-lin-arr/chc-lia-lin-arr-0198_000.smt2
(set-logic HORN)

(declare-fun |ULTIMATE.start_ULTIMATE.startENTRY| ( Int (Array Int Int) (Array Int Int) (Array Int (Array Int Int)) (Array Int (Array Int Int)) Int Int (Array Int Int) (Array Int Int) Int Int Int Int Int Int Int Int Int Int Int Int Int Int Int Int Int Int Int Int Int Int Int Int Bool ) Bool)
(declare-fun |ULTIMATE.start_L2| ( Int (Array Int Int) (Array Int Int) (Array Int (Array Int Int)) (Array Int (Array Int Int)) Int Int (Array Int Int) (Array Int Int) Int Int Int Int Int Int Int Int Int Int Int Int Int Int Int Int Int Int Int Int Int Int Int Int Bool ) Bool)
(declare-fun |ULTIMATE.start_L13-4| ( Int (Array Int Int) (Array Int Int) (Array Int (Array Int Int)) (Array Int (Array Int Int)) Int Int (Array Int Int) (Array Int Int) Int Int Int Int Int Int Int Int Int Int Int Int Int Int Int Int Int Int Int Int Int Int Int Int Bool ) Bool)
(declare-fun |ULTIMATE.start_L-1| ( Int (Array Int Int) (Array Int Int) (Array Int (Array Int Int)) (Array Int (Array Int Int)) Int Int (Array Int Int) (Array Int Int) Int Int Int Int Int Int Int Int Int Int Int Int Int Int Int Int Int Int Int Int Int Int Int Int Bool ) Bool)
(declare-fun |ULTIMATE.start_L20-3| ( Int (Array Int Int) (Array Int Int) (Array Int (Array Int Int)) (Array Int (Array Int Int)) Int Int (Array Int Int) (Array Int Int) Int Int Int Int Int Int Int Int Int Int Int Int Int Int Int Int Int Int Int Int Int Int Int Int Bool ) Bool)
(declare-fun |ULTIMATE.start_ULTIMATE.startEXIT| ( Int (Array Int Int) (Array Int Int) (Array Int (Array Int Int)) (Array Int (Array Int Int)) Int Int (Array Int Int) (Array Int Int) Int Int Int Int Int Int Int Int Int Int Int Int Int Int Int Int Int Int Int Int Int Int Int Int Bool ) Bool)
(declare-fun |ULTIMATE.start_L9-2| ( Int (Array Int Int) (Array Int Int) (Array Int (Array Int Int)) (Array Int (Array Int Int)) Int Int (Array Int Int) (Array Int Int) Int Int Int Int Int Int Int Int Int Int Int Int Int Int Int Int Int Int Int Int Int Int Int Int Bool ) Bool)
(declare-fun |ULTIMATE.start_L13-3| ( Int (Array Int Int) (Array Int Int) (Array Int (Array Int Int)) (Array Int (Array Int Int)) Int Int (Array Int Int) (Array Int Int) Int Int Int Int Int Int Int Int Int Int Int Int Int Int Int Int Int Int Int Int Int Int Int Int Bool ) Bool)
(declare-fun |ULTIMATE.start_L16-4| ( Int (Array Int Int) (Array Int Int) (Array Int (Array Int Int)) (Array Int (Array Int Int)) Int Int (Array Int Int) (Array Int Int) Int Int Int Int Int Int Int Int Int Int Int Int Int Int Int Int Int Int Int Int Int Int Int Int Bool ) Bool)
(declare-fun |ULTIMATE.start_L20-4| ( Int (Array Int Int) (Array Int Int) (Array Int (Array Int Int)) (Array Int (Array Int Int)) Int Int (Array Int Int) (Array Int Int) Int Int Int Int Int Int Int Int Int Int Int Int Int Int Int Int Int Int Int Int Int Int Int Int Bool ) Bool)
(declare-fun |ULTIMATE.start_L2-1| ( Int (Array Int Int) (Array Int Int) (Array Int (Array Int Int)) (Array Int (Array Int Int)) Int Int (Array Int Int) (Array Int Int) Int Int Int Int Int Int Int Int Int Int Int Int Int Int Int Int Int Int Int Int Int Int Int Int Bool ) Bool)
(declare-fun |ULTIMATE.start_L16-2| ( Int (Array Int Int) (Array Int Int) (Array Int (Array Int Int)) (Array Int (Array Int Int)) Int Int (Array Int Int) (Array Int Int) Int Int Int Int Int Int Int Int Int Int Int Int Int Int Int Int Int Int Int Int Int Int Int Int Bool ) Bool)
(declare-fun |ULTIMATE.start_L9-4| ( Int (Array Int Int) (Array Int Int) (Array Int (Array Int Int)) (Array Int (Array Int Int)) Int Int (Array Int Int) (Array Int Int) Int Int Int Int Int Int Int Int Int Int Int Int Int Int Int Int Int Int Int Int Int Int Int Int Bool ) Bool)
(declare-fun |ULTIMATE.start_ULTIMATE.startFINAL| ( Int (Array Int Int) (Array Int Int) (Array Int (Array Int Int)) (Array Int (Array Int Int)) Int Int (Array Int Int) (Array Int Int) Int Int Int Int Int Int Int Int Int Int Int Int Int Int Int Int Int Int Int Int Int Int Int Int Bool ) Bool)
(declare-fun |ULTIMATE.start_L23| ( Int (Array Int Int) (Array Int Int) (Array Int (Array Int Int)) (Array Int (Array Int Int)) Int Int (Array Int Int) (Array Int Int) Int Int Int Int Int Int Int Int Int Int Int Int Int Int Int Int Int Int Int Int Int Int Int Int Bool ) Bool)
(declare-fun |ULTIMATE.start_L2-3| ( Int (Array Int Int) (Array Int Int) (Array Int (Array Int Int)) (Array Int (Array Int Int)) Int Int (Array Int Int) (Array Int Int) Int Int Int Int Int Int Int Int Int Int Int Int Int Int Int Int Int Int Int Int Int Int Int Int Bool ) Bool)
(declare-fun |ULTIMATE.start_L13-2| ( Int (Array Int Int) (Array Int Int) (Array Int (Array Int Int)) (Array Int (Array Int Int)) Int Int (Array Int Int) (Array Int Int) Int Int Int Int Int Int Int Int Int Int Int Int Int Int Int Int Int Int Int Int Int Int Int Int Bool ) Bool)
(declare-fun |ULTIMATE.start_L20-2| ( Int (Array Int Int) (Array Int Int) (Array Int (Array Int Int)) (Array Int (Array Int Int)) Int Int (Array Int Int) (Array Int Int) Int Int Int Int Int Int Int Int Int Int Int Int Int Int Int Int Int Int Int Int Int Int Int Int Bool ) Bool)
(declare-fun |ULTIMATE.start_L16-3| ( Int (Array Int Int) (Array Int Int) (Array Int (Array Int Int)) (Array Int (Array Int Int)) Int Int (Array Int Int) (Array Int Int) Int Int Int Int Int Int Int Int Int Int Int Int Int Int Int Int Int Int Int Int Int Int Int Int Bool ) Bool)
(declare-fun |ULTIMATE.start_L9-3| ( Int (Array Int Int) (Array Int Int) (Array Int (Array Int Int)) (Array Int (Array Int Int)) Int Int (Array Int Int) (Array Int Int) Int Int Int Int Int Int Int Int Int Int Int Int Int Int Int Int Int Int Int Int Int Int Int Int Bool ) Bool)

(assert
  (forall ( (A Int) (B (Array Int Int)) (C (Array Int Int)) (D (Array Int (Array Int Int))) (E (Array Int (Array Int Int))) (F Int) (G Int) (H (Array Int Int)) (I (Array Int Int)) (J Int) (K Int) (L Int) (M Int) (N Int) (O Int) (P Int) (Q Int) (R Int) (S Int) (T Int) (U Int) (V Int) (W Int) (X Int) (Y Int) (Z Int) (A1 Int) (B1 Int) (C1 Int) (D1 Int) (E1 Int) (F1 Int) (G1 Int) (H1 Bool) (I1 (Array Int Int)) (J1 Int) (K1 Int) ) 
    (=>
      (and
        (ULTIMATE.start_ULTIMATE.startENTRY
  A
  I1
  C
  D
  E
  J1
  G
  H
  I
  K1
  K
  L
  M
  N
  O
  P
  Q
  R
  S
  T
  U
  V
  W
  X
  Y
  Z
  A1
  B1
  C1
  D1
  E1
  F1
  G1
  H1)
        (or H1 (and (= J 0) (= F 0) (= B (store I1 0 0))))
      )
      (ULTIMATE.start_L-1
  A
  B
  C
  D
  E
  F
  G
  H
  I
  J
  K
  L
  M
  N
  O
  P
  Q
  R
  S
  T
  U
  V
  W
  X
  Y
  Z
  A1
  B1
  C1
  D1
  E1
  F1
  G1
  H1)
    )
  )
)
(assert
  (forall ( (A Int) (B (Array Int Int)) (C (Array Int Int)) (D (Array Int (Array Int Int))) (E (Array Int (Array Int Int))) (F Int) (G Int) (H (Array Int Int)) (I (Array Int Int)) (J Int) (K Int) (L Int) (M Int) (N Int) (O Int) (P Int) (Q Int) (R Int) (S Int) (T Int) (U Int) (V Int) (W Int) (X Int) (Y Int) (Z Int) (A1 Int) (B1 Int) (C1 Int) (D1 Int) (E1 Int) (F1 Int) (G1 Int) (H1 Bool) (I1 (Array Int Int)) (J1 (Array Int Int)) (K1 Int) (L1 Int) (M1 Int) (N1 Int) (O1 Int) (P1 Int) (Q1 Int) (R1 Int) (S1 Int) (T1 Int) (U1 Int) (V1 Int) (W1 Int) (X1 Int) (Y1 Int) (Z1 Int) (A2 Int) (B2 Int) (C2 Int) ) 
    (=>
      (and
        (ULTIMATE.start_L-1
  A
  I1
  C
  D
  E
  F
  G
  J1
  I
  J
  K
  K1
  L1
  M1
  N1
  P
  O1
  P1
  S
  Q1
  R1
  S1
  T1
  U1
  V1
  W1
  X1
  Y1
  Z1
  A2
  E1
  B2
  C2
  H1)
        (let ((a!1 (= (select (store (store I1 V 1) C1 1) N) 0))
      (a!2 (= H (store (store (store J1 V 400000) C1 400000) N 400000)))
      (a!3 (= (store (store (store I1 V 1) C1 1) N 1) B)))
(let ((a!4 (and (not (<= A N))
                (not (<= A V))
                (not (<= A C1))
                (= M 0)
                (= O 0)
                (= B1 0)
                (= Y 0)
                (not (= 0 N))
                (not (= 0 V))
                (not (= 0 C1))
                (= (select I1 V) 0)
                (= (select (store I1 V 1) C1) 0)
                a!1
                a!2
                a!3)))
  (or H1 a!4)))
      )
      (ULTIMATE.start_L9-3
  A
  B
  C
  D
  E
  F
  G
  H
  I
  J
  K
  L
  M
  N
  O
  P
  Q
  R
  S
  T
  U
  V
  W
  X
  Y
  Z
  A1
  B1
  C1
  D1
  E1
  F1
  G1
  H1)
    )
  )
)
(assert
  (forall ( (A Int) (B (Array Int Int)) (C (Array Int Int)) (D (Array Int (Array Int Int))) (E (Array Int (Array Int Int))) (F Int) (G Int) (H (Array Int Int)) (I (Array Int Int)) (J Int) (K Int) (L Int) (M Int) (N Int) (O Int) (P Int) (Q Int) (R Int) (S Int) (T Int) (U Int) (V Int) (W Int) (X Int) (Y Int) (Z Int) (A1 Int) (B1 Int) (C1 Int) (D1 Int) (E1 Int) (F1 Int) (G1 Int) (H1 Bool) ) 
    (=>
      (and
        (ULTIMATE.start_L9-3
  A
  B
  C
  D
  E
  F
  G
  H
  I
  J
  K
  L
  M
  N
  O
  P
  Q
  R
  S
  T
  U
  V
  W
  X
  Y
  Z
  A1
  B1
  C1
  D1
  E1
  F1
  G1
  H1)
        (= H1 true)
      )
      (ULTIMATE.start_L9-4
  A
  B
  C
  D
  E
  F
  G
  H
  I
  J
  K
  L
  M
  N
  O
  P
  Q
  R
  S
  T
  U
  V
  W
  X
  Y
  Z
  A1
  B1
  C1
  D1
  E1
  F1
  G1
  H1)
    )
  )
)
(assert
  (forall ( (A Int) (B (Array Int Int)) (C (Array Int Int)) (D (Array Int (Array Int Int))) (E (Array Int (Array Int Int))) (F Int) (G Int) (H (Array Int Int)) (I (Array Int Int)) (J Int) (K Int) (L Int) (M Int) (N Int) (O Int) (P Int) (Q Int) (R Int) (S Int) (T Int) (U Int) (V Int) (W Int) (X Int) (Y Int) (Z Int) (A1 Int) (B1 Int) (C1 Int) (D1 Int) (E1 Int) (F1 Int) (G1 Int) (H1 Bool) ) 
    (=>
      (and
        (ULTIMATE.start_L9-3
  A
  B
  C
  D
  E
  F
  G
  H
  I
  J
  K
  L
  M
  N
  O
  P
  Q
  R
  S
  T
  U
  V
  W
  X
  Y
  Z
  A1
  B1
  C1
  D1
  E1
  F1
  G1
  H1)
        (or H1 (<= 100000 O))
      )
      (ULTIMATE.start_L9-4
  A
  B
  C
  D
  E
  F
  G
  H
  I
  J
  K
  L
  M
  N
  O
  P
  Q
  R
  S
  T
  U
  V
  W
  X
  Y
  Z
  A1
  B1
  C1
  D1
  E1
  F1
  G1
  H1)
    )
  )
)
(assert
  (forall ( (A Int) (B (Array Int Int)) (C (Array Int Int)) (D (Array Int (Array Int Int))) (E (Array Int (Array Int Int))) (F Int) (G Int) (H (Array Int Int)) (I (Array Int Int)) (J Int) (K Int) (L Int) (M Int) (N Int) (O Int) (P Int) (Q Int) (R Int) (S Int) (T Int) (U Int) (V Int) (W Int) (X Int) (Y Int) (Z Int) (A1 Int) (B1 Int) (C1 Int) (D1 Int) (E1 Int) (F1 Int) (G1 Int) (H1 Bool) (I1 (Array Int (Array Int Int))) (J1 Int) ) 
    (=>
      (and
        (ULTIMATE.start_L9-3
  A
  B
  C
  I1
  E
  F
  G
  H
  I
  J
  K
  J1
  M
  N
  O
  P
  Q
  R
  S
  T
  U
  V
  W
  X
  Y
  Z
  A1
  B1
  C1
  D1
  E1
  F1
  G1
  H1)
        (let ((a!1 (store I1 V (store (select I1 V) (+ (* 4 O) Y) J1))))
  (or H1
      (and (<= J1 2147483647)
           (not (<= 100000 O))
           (<= (- 2147483648) J1)
           (= D a!1))))
      )
      (ULTIMATE.start_L9-2
  A
  B
  C
  D
  E
  F
  G
  H
  I
  J
  K
  L
  M
  N
  O
  P
  Q
  R
  S
  T
  U
  V
  W
  X
  Y
  Z
  A1
  B1
  C1
  D1
  E1
  F1
  G1
  H1)
    )
  )
)
(assert
  (forall ( (A Int) (B (Array Int Int)) (C (Array Int Int)) (D (Array Int (Array Int Int))) (E (Array Int (Array Int Int))) (F Int) (G Int) (H (Array Int Int)) (I (Array Int Int)) (J Int) (K Int) (L Int) (M Int) (N Int) (O Int) (P Int) (Q Int) (R Int) (S Int) (T Int) (U Int) (V Int) (W Int) (X Int) (Y Int) (Z Int) (A1 Int) (B1 Int) (C1 Int) (D1 Int) (E1 Int) (F1 Int) (G1 Int) (H1 Bool) (I1 Int) ) 
    (=>
      (and
        (ULTIMATE.start_L9-4
  A
  B
  C
  D
  E
  F
  G
  H
  I
  J
  K
  L
  M
  N
  O
  P
  Q
  I1
  S
  T
  U
  V
  W
  X
  Y
  Z
  A1
  B1
  C1
  D1
  E1
  F1
  G1
  H1)
        (or H1 (= R 0))
      )
      (ULTIMATE.start_L13-3
  A
  B
  C
  D
  E
  F
  G
  H
  I
  J
  K
  L
  M
  N
  O
  P
  Q
  R
  S
  T
  U
  V
  W
  X
  Y
  Z
  A1
  B1
  C1
  D1
  E1
  F1
  G1
  H1)
    )
  )
)
(assert
  (forall ( (A Int) (B (Array Int Int)) (C (Array Int Int)) (D (Array Int (Array Int Int))) (E (Array Int (Array Int Int))) (F Int) (G Int) (H (Array Int Int)) (I (Array Int Int)) (J Int) (K Int) (L Int) (M Int) (N Int) (O Int) (P Int) (Q Int) (R Int) (S Int) (T Int) (U Int) (V Int) (W Int) (X Int) (Y Int) (Z Int) (A1 Int) (B1 Int) (C1 Int) (D1 Int) (E1 Int) (F1 Int) (G1 Int) (H1 Bool) (I1 Int) (J1 Int) ) 
    (=>
      (and
        (ULTIMATE.start_L9-2
  A
  B
  C
  D
  E
  F
  G
  H
  I
  J
  K
  L
  M
  N
  I1
  P
  Q
  R
  S
  J1
  U
  V
  W
  X
  Y
  Z
  A1
  B1
  C1
  D1
  E1
  F1
  G1
  H1)
        (or H1 (= I1 (+ (- 1) O)))
      )
      (ULTIMATE.start_L9-3
  A
  B
  C
  D
  E
  F
  G
  H
  I
  J
  K
  L
  M
  N
  O
  P
  Q
  R
  S
  T
  U
  V
  W
  X
  Y
  Z
  A1
  B1
  C1
  D1
  E1
  F1
  G1
  H1)
    )
  )
)
(assert
  (forall ( (A Int) (B (Array Int Int)) (C (Array Int Int)) (D (Array Int (Array Int Int))) (E (Array Int (Array Int Int))) (F Int) (G Int) (H (Array Int Int)) (I (Array Int Int)) (J Int) (K Int) (L Int) (M Int) (N Int) (O Int) (P Int) (Q Int) (R Int) (S Int) (T Int) (U Int) (V Int) (W Int) (X Int) (Y Int) (Z Int) (A1 Int) (B1 Int) (C1 Int) (D1 Int) (E1 Int) (F1 Int) (G1 Int) (H1 Bool) ) 
    (=>
      (and
        (ULTIMATE.start_L13-3
  A
  B
  C
  D
  E
  F
  G
  H
  I
  J
  K
  L
  M
  N
  O
  P
  Q
  R
  S
  T
  U
  V
  W
  X
  Y
  Z
  A1
  B1
  C1
  D1
  E1
  F1
  G1
  H1)
        (= H1 true)
      )
      (ULTIMATE.start_L13-4
  A
  B
  C
  D
  E
  F
  G
  H
  I
  J
  K
  L
  M
  N
  O
  P
  Q
  R
  S
  T
  U
  V
  W
  X
  Y
  Z
  A1
  B1
  C1
  D1
  E1
  F1
  G1
  H1)
    )
  )
)
(assert
  (forall ( (A Int) (B (Array Int Int)) (C (Array Int Int)) (D (Array Int (Array Int Int))) (E (Array Int (Array Int Int))) (F Int) (G Int) (H (Array Int Int)) (I (Array Int Int)) (J Int) (K Int) (L Int) (M Int) (N Int) (O Int) (P Int) (Q Int) (R Int) (S Int) (T Int) (U Int) (V Int) (W Int) (X Int) (Y Int) (Z Int) (A1 Int) (B1 Int) (C1 Int) (D1 Int) (E1 Int) (F1 Int) (G1 Int) (H1 Bool) ) 
    (=>
      (and
        (ULTIMATE.start_L13-3
  A
  B
  C
  D
  E
  F
  G
  H
  I
  J
  K
  L
  M
  N
  O
  P
  Q
  R
  S
  T
  U
  V
  W
  X
  Y
  Z
  A1
  B1
  C1
  D1
  E1
  F1
  G1
  H1)
        (or H1 (<= 100000 R))
      )
      (ULTIMATE.start_L13-4
  A
  B
  C
  D
  E
  F
  G
  H
  I
  J
  K
  L
  M
  N
  O
  P
  Q
  R
  S
  T
  U
  V
  W
  X
  Y
  Z
  A1
  B1
  C1
  D1
  E1
  F1
  G1
  H1)
    )
  )
)
(assert
  (forall ( (A Int) (B (Array Int Int)) (C (Array Int Int)) (D (Array Int (Array Int Int))) (E (Array Int (Array Int Int))) (F Int) (G Int) (H (Array Int Int)) (I (Array Int Int)) (J Int) (K Int) (L Int) (M Int) (N Int) (O Int) (P Int) (Q Int) (R Int) (S Int) (T Int) (U Int) (V Int) (W Int) (X Int) (Y Int) (Z Int) (A1 Int) (B1 Int) (C1 Int) (D1 Int) (E1 Int) (F1 Int) (G1 Int) (H1 Bool) (I1 (Array Int (Array Int Int))) (J1 Int) ) 
    (=>
      (and
        (ULTIMATE.start_L13-3
  A
  B
  C
  I1
  E
  F
  G
  H
  I
  J
  K
  L
  M
  N
  O
  P
  Q
  R
  S
  T
  U
  V
  W
  X
  Y
  Z
  A1
  B1
  C1
  D1
  E1
  F1
  J1
  H1)
        (let ((a!1 (store (select I1 C1)
                  (+ (* 4 R) M)
                  (select (select I1 V) (+ (* 4 R) Y)))))
  (or H1 (and (not (<= 100000 R)) (= (store I1 C1 a!1) D))))
      )
      (ULTIMATE.start_L13-2
  A
  B
  C
  D
  E
  F
  G
  H
  I
  J
  K
  L
  M
  N
  O
  P
  Q
  R
  S
  T
  U
  V
  W
  X
  Y
  Z
  A1
  B1
  C1
  D1
  E1
  F1
  G1
  H1)
    )
  )
)
(assert
  (forall ( (A Int) (B (Array Int Int)) (C (Array Int Int)) (D (Array Int (Array Int Int))) (E (Array Int (Array Int Int))) (F Int) (G Int) (H (Array Int Int)) (I (Array Int Int)) (J Int) (K Int) (L Int) (M Int) (N Int) (O Int) (P Int) (Q Int) (R Int) (S Int) (T Int) (U Int) (V Int) (W Int) (X Int) (Y Int) (Z Int) (A1 Int) (B1 Int) (C1 Int) (D1 Int) (E1 Int) (F1 Int) (G1 Int) (H1 Bool) (I1 Int) ) 
    (=>
      (and
        (ULTIMATE.start_L13-4
  A
  B
  C
  D
  E
  F
  G
  H
  I
  J
  K
  L
  M
  N
  O
  P
  Q
  I1
  S
  T
  U
  V
  W
  X
  Y
  Z
  A1
  B1
  C1
  D1
  E1
  F1
  G1
  H1)
        (or H1 (= R 0))
      )
      (ULTIMATE.start_L16-3
  A
  B
  C
  D
  E
  F
  G
  H
  I
  J
  K
  L
  M
  N
  O
  P
  Q
  R
  S
  T
  U
  V
  W
  X
  Y
  Z
  A1
  B1
  C1
  D1
  E1
  F1
  G1
  H1)
    )
  )
)
(assert
  (forall ( (A Int) (B (Array Int Int)) (C (Array Int Int)) (D (Array Int (Array Int Int))) (E (Array Int (Array Int Int))) (F Int) (G Int) (H (Array Int Int)) (I (Array Int Int)) (J Int) (K Int) (L Int) (M Int) (N Int) (O Int) (P Int) (Q Int) (R Int) (S Int) (T Int) (U Int) (V Int) (W Int) (X Int) (Y Int) (Z Int) (A1 Int) (B1 Int) (C1 Int) (D1 Int) (E1 Int) (F1 Int) (G1 Int) (H1 Bool) (I1 Int) (J1 Int) ) 
    (=>
      (and
        (ULTIMATE.start_L13-2
  A
  B
  C
  D
  E
  F
  G
  H
  I
  J
  K
  L
  M
  N
  O
  P
  I1
  J1
  S
  T
  U
  V
  W
  X
  Y
  Z
  A1
  B1
  C1
  D1
  E1
  F1
  G1
  H1)
        (or H1 (= J1 (+ (- 1) R)))
      )
      (ULTIMATE.start_L13-3
  A
  B
  C
  D
  E
  F
  G
  H
  I
  J
  K
  L
  M
  N
  O
  P
  Q
  R
  S
  T
  U
  V
  W
  X
  Y
  Z
  A1
  B1
  C1
  D1
  E1
  F1
  G1
  H1)
    )
  )
)
(assert
  (forall ( (A Int) (B (Array Int Int)) (C (Array Int Int)) (D (Array Int (Array Int Int))) (E (Array Int (Array Int Int))) (F Int) (G Int) (H (Array Int Int)) (I (Array Int Int)) (J Int) (K Int) (L Int) (M Int) (N Int) (O Int) (P Int) (Q Int) (R Int) (S Int) (T Int) (U Int) (V Int) (W Int) (X Int) (Y Int) (Z Int) (A1 Int) (B1 Int) (C1 Int) (D1 Int) (E1 Int) (F1 Int) (G1 Int) (H1 Bool) ) 
    (=>
      (and
        (ULTIMATE.start_L16-3
  A
  B
  C
  D
  E
  F
  G
  H
  I
  J
  K
  L
  M
  N
  O
  P
  Q
  R
  S
  T
  U
  V
  W
  X
  Y
  Z
  A1
  B1
  C1
  D1
  E1
  F1
  G1
  H1)
        (= H1 true)
      )
      (ULTIMATE.start_L16-4
  A
  B
  C
  D
  E
  F
  G
  H
  I
  J
  K
  L
  M
  N
  O
  P
  Q
  R
  S
  T
  U
  V
  W
  X
  Y
  Z
  A1
  B1
  C1
  D1
  E1
  F1
  G1
  H1)
    )
  )
)
(assert
  (forall ( (A Int) (B (Array Int Int)) (C (Array Int Int)) (D (Array Int (Array Int Int))) (E (Array Int (Array Int Int))) (F Int) (G Int) (H (Array Int Int)) (I (Array Int Int)) (J Int) (K Int) (L Int) (M Int) (N Int) (O Int) (P Int) (Q Int) (R Int) (S Int) (T Int) (U Int) (V Int) (W Int) (X Int) (Y Int) (Z Int) (A1 Int) (B1 Int) (C1 Int) (D1 Int) (E1 Int) (F1 Int) (G1 Int) (H1 Bool) ) 
    (=>
      (and
        (ULTIMATE.start_L16-3
  A
  B
  C
  D
  E
  F
  G
  H
  I
  J
  K
  L
  M
  N
  O
  P
  Q
  R
  S
  T
  U
  V
  W
  X
  Y
  Z
  A1
  B1
  C1
  D1
  E1
  F1
  G1
  H1)
        (or H1 (<= 100000 R))
      )
      (ULTIMATE.start_L16-4
  A
  B
  C
  D
  E
  F
  G
  H
  I
  J
  K
  L
  M
  N
  O
  P
  Q
  R
  S
  T
  U
  V
  W
  X
  Y
  Z
  A1
  B1
  C1
  D1
  E1
  F1
  G1
  H1)
    )
  )
)
(assert
  (forall ( (A Int) (B (Array Int Int)) (C (Array Int Int)) (D (Array Int (Array Int Int))) (E (Array Int (Array Int Int))) (F Int) (G Int) (H (Array Int Int)) (I (Array Int Int)) (J Int) (K Int) (L Int) (M Int) (N Int) (O Int) (P Int) (Q Int) (R Int) (S Int) (T Int) (U Int) (V Int) (W Int) (X Int) (Y Int) (Z Int) (A1 Int) (B1 Int) (C1 Int) (D1 Int) (E1 Int) (F1 Int) (G1 Int) (H1 Bool) (I1 (Array Int (Array Int Int))) (J1 Int) ) 
    (=>
      (and
        (ULTIMATE.start_L16-3
  A
  B
  C
  I1
  E
  F
  G
  H
  I
  J
  K
  L
  M
  N
  O
  P
  Q
  R
  S
  T
  U
  V
  W
  X
  Y
  Z
  A1
  B1
  C1
  D1
  E1
  J1
  G1
  H1)
        (let ((a!1 (store (select I1 N)
                  (+ B1 (* 4 R))
                  (select (select I1 C1) (+ M (* 4 R))))))
  (or H1 (and (not (<= 100000 R)) (= D (store I1 N a!1)))))
      )
      (ULTIMATE.start_L16-2
  A
  B
  C
  D
  E
  F
  G
  H
  I
  J
  K
  L
  M
  N
  O
  P
  Q
  R
  S
  T
  U
  V
  W
  X
  Y
  Z
  A1
  B1
  C1
  D1
  E1
  F1
  G1
  H1)
    )
  )
)
(assert
  (forall ( (A Int) (B (Array Int Int)) (C (Array Int Int)) (D (Array Int (Array Int Int))) (E (Array Int (Array Int Int))) (F Int) (G Int) (H (Array Int Int)) (I (Array Int Int)) (J Int) (K Int) (L Int) (M Int) (N Int) (O Int) (P Int) (Q Int) (R Int) (S Int) (T Int) (U Int) (V Int) (W Int) (X Int) (Y Int) (Z Int) (A1 Int) (B1 Int) (C1 Int) (D1 Int) (E1 Int) (F1 Int) (G1 Int) (H1 Bool) (I1 Int) ) 
    (=>
      (and
        (ULTIMATE.start_L16-4
  A
  B
  C
  D
  E
  F
  G
  H
  I
  J
  K
  L
  M
  N
  O
  P
  Q
  R
  S
  T
  U
  V
  I1
  X
  Y
  Z
  A1
  B1
  C1
  D1
  E1
  F1
  G1
  H1)
        (or H1 (= W 0))
      )
      (ULTIMATE.start_L20-3
  A
  B
  C
  D
  E
  F
  G
  H
  I
  J
  K
  L
  M
  N
  O
  P
  Q
  R
  S
  T
  U
  V
  W
  X
  Y
  Z
  A1
  B1
  C1
  D1
  E1
  F1
  G1
  H1)
    )
  )
)
(assert
  (forall ( (A Int) (B (Array Int Int)) (C (Array Int Int)) (D (Array Int (Array Int Int))) (E (Array Int (Array Int Int))) (F Int) (G Int) (H (Array Int Int)) (I (Array Int Int)) (J Int) (K Int) (L Int) (M Int) (N Int) (O Int) (P Int) (Q Int) (R Int) (S Int) (T Int) (U Int) (V Int) (W Int) (X Int) (Y Int) (Z Int) (A1 Int) (B1 Int) (C1 Int) (D1 Int) (E1 Int) (F1 Int) (G1 Int) (H1 Bool) (I1 Int) (J1 Int) ) 
    (=>
      (and
        (ULTIMATE.start_L16-2
  A
  B
  C
  D
  E
  F
  G
  H
  I
  J
  K
  L
  M
  N
  O
  P
  Q
  I1
  S
  T
  U
  V
  W
  J1
  Y
  Z
  A1
  B1
  C1
  D1
  E1
  F1
  G1
  H1)
        (or H1 (= R (+ 1 I1)))
      )
      (ULTIMATE.start_L16-3
  A
  B
  C
  D
  E
  F
  G
  H
  I
  J
  K
  L
  M
  N
  O
  P
  Q
  R
  S
  T
  U
  V
  W
  X
  Y
  Z
  A1
  B1
  C1
  D1
  E1
  F1
  G1
  H1)
    )
  )
)
(assert
  (forall ( (A Int) (B (Array Int Int)) (C (Array Int Int)) (D (Array Int (Array Int Int))) (E (Array Int (Array Int Int))) (F Int) (G Int) (H (Array Int Int)) (I (Array Int Int)) (J Int) (K Int) (L Int) (M Int) (N Int) (O Int) (P Int) (Q Int) (R Int) (S Int) (T Int) (U Int) (V Int) (W Int) (X Int) (Y Int) (Z Int) (A1 Int) (B1 Int) (C1 Int) (D1 Int) (E1 Int) (F1 Int) (G1 Int) (H1 Bool) ) 
    (=>
      (and
        (ULTIMATE.start_L20-3
  A
  B
  C
  D
  E
  F
  G
  H
  I
  J
  K
  L
  M
  N
  O
  P
  Q
  R
  S
  T
  U
  V
  W
  X
  Y
  Z
  A1
  B1
  C1
  D1
  E1
  F1
  G1
  H1)
        (= H1 true)
      )
      (ULTIMATE.start_L20-4
  A
  B
  C
  D
  E
  F
  G
  H
  I
  J
  K
  L
  M
  N
  O
  P
  Q
  R
  S
  T
  U
  V
  W
  X
  Y
  Z
  A1
  B1
  C1
  D1
  E1
  F1
  G1
  H1)
    )
  )
)
(assert
  (forall ( (A Int) (B (Array Int Int)) (C (Array Int Int)) (D (Array Int (Array Int Int))) (E (Array Int (Array Int Int))) (F Int) (G Int) (H (Array Int Int)) (I (Array Int Int)) (J Int) (K Int) (L Int) (M Int) (N Int) (O Int) (P Int) (Q Int) (R Int) (S Int) (T Int) (U Int) (V Int) (W Int) (X Int) (Y Int) (Z Int) (A1 Int) (B1 Int) (C1 Int) (D1 Int) (E1 Int) (F1 Int) (G1 Int) (H1 Bool) ) 
    (=>
      (and
        (ULTIMATE.start_L20-3
  A
  B
  C
  D
  E
  F
  G
  H
  I
  J
  K
  L
  M
  N
  O
  P
  Q
  R
  S
  T
  U
  V
  W
  X
  Y
  Z
  A1
  B1
  C1
  D1
  E1
  F1
  G1
  H1)
        (or H1 (<= 100000 W))
      )
      (ULTIMATE.start_L20-4
  A
  B
  C
  D
  E
  F
  G
  H
  I
  J
  K
  L
  M
  N
  O
  P
  Q
  R
  S
  T
  U
  V
  W
  X
  Y
  Z
  A1
  B1
  C1
  D1
  E1
  F1
  G1
  H1)
    )
  )
)
(assert
  (forall ( (A Int) (B (Array Int Int)) (C (Array Int Int)) (D (Array Int (Array Int Int))) (E (Array Int (Array Int Int))) (F Int) (G Int) (H (Array Int Int)) (I (Array Int Int)) (J Int) (K Int) (L Int) (M Int) (N Int) (O Int) (P Int) (Q Int) (R Int) (S Int) (T Int) (U Int) (V Int) (W Int) (X Int) (Y Int) (Z Int) (A1 Int) (B1 Int) (C1 Int) (D1 Int) (E1 Int) (F1 Int) (G1 Int) (H1 Bool) (I1 Int) (J1 Int) (K1 Int) (L1 Int) ) 
    (=>
      (and
        (ULTIMATE.start_L20-3
  A
  B
  C
  D
  E
  F
  G
  H
  I
  J
  K
  L
  M
  N
  O
  I1
  Q
  R
  S
  T
  U
  V
  W
  X
  Y
  J1
  K1
  B1
  C1
  D1
  L1
  F1
  G1
  H1)
        (let ((a!1 (= A1 (select (select D V) (+ Y (* 4 W)))))
      (a!2 (= (select (select D N) (+ B1 (* 4 W))) Z)))
(let ((a!3 (and (not (<= 100000 W)) (= E1 (ite (= Z A1) 1 0)) a!1 (= P E1) a!2)))
  (or H1 a!3)))
      )
      (ULTIMATE.start_L2
  A
  B
  C
  D
  E
  F
  G
  H
  I
  J
  K
  L
  M
  N
  O
  P
  Q
  R
  S
  T
  U
  V
  W
  X
  Y
  Z
  A1
  B1
  C1
  D1
  E1
  F1
  G1
  H1)
    )
  )
)
(assert
  (forall ( (A Int) (B (Array Int Int)) (C (Array Int Int)) (D (Array Int (Array Int Int))) (E (Array Int (Array Int Int))) (F Int) (G Int) (H (Array Int Int)) (I (Array Int Int)) (J Int) (K Int) (L Int) (M Int) (N Int) (O Int) (P Int) (Q Int) (R Int) (S Int) (T Int) (U Int) (V Int) (W Int) (X Int) (Y Int) (Z Int) (A1 Int) (B1 Int) (C1 Int) (D1 Int) (E1 Int) (F1 Int) (G1 Int) (H1 Bool) (I1 (Array Int Int)) (J1 Int) (K1 Int) (L1 Int) (M1 Int) (N1 Int) (O1 Int) (P1 Int) ) 
    (=>
      (and
        (ULTIMATE.start_L20-4
  A
  I1
  C
  D
  E
  F
  G
  H
  I
  J
  K
  L
  J1
  K1
  O
  P
  Q
  R
  S
  T
  U
  L1
  W
  X
  M1
  Z
  A1
  N1
  O1
  P1
  E1
  F1
  G1
  H1)
        (let ((a!1 (= (store (store (store I1 L1 0) O1 0) K1 0) B)))
  (or H1 (and (= D1 0) a!1)))
      )
      (ULTIMATE.start_L23
  A
  B
  C
  D
  E
  F
  G
  H
  I
  J
  K
  L
  M
  N
  O
  P
  Q
  R
  S
  T
  U
  V
  W
  X
  Y
  Z
  A1
  B1
  C1
  D1
  E1
  F1
  G1
  H1)
    )
  )
)
(assert
  (forall ( (A Int) (B (Array Int Int)) (C (Array Int Int)) (D (Array Int (Array Int Int))) (E (Array Int (Array Int Int))) (F Int) (G Int) (H (Array Int Int)) (I (Array Int Int)) (J Int) (K Int) (L Int) (M Int) (N Int) (O Int) (P Int) (Q Int) (R Int) (S Int) (T Int) (U Int) (V Int) (W Int) (X Int) (Y Int) (Z Int) (A1 Int) (B1 Int) (C1 Int) (D1 Int) (E1 Int) (F1 Int) (G1 Int) (H1 Bool) ) 
    (=>
      (and
        (ULTIMATE.start_L2
  A
  B
  C
  D
  E
  F
  G
  H
  I
  J
  K
  L
  M
  N
  O
  P
  Q
  R
  S
  T
  U
  V
  W
  X
  Y
  Z
  A1
  B1
  C1
  D1
  E1
  F1
  G1
  H1)
        (or H1 (= 0 P))
      )
      (ULTIMATE.start_L2-1
  A
  B
  C
  D
  E
  F
  G
  H
  I
  J
  K
  L
  M
  N
  O
  P
  Q
  R
  S
  T
  U
  V
  W
  X
  Y
  Z
  A1
  B1
  C1
  D1
  E1
  F1
  G1
  H1)
    )
  )
)
(assert
  (forall ( (A Int) (B (Array Int Int)) (C (Array Int Int)) (D (Array Int (Array Int Int))) (E (Array Int (Array Int Int))) (F Int) (G Int) (H (Array Int Int)) (I (Array Int Int)) (J Int) (K Int) (L Int) (M Int) (N Int) (O Int) (P Int) (Q Int) (R Int) (S Int) (T Int) (U Int) (V Int) (W Int) (X Int) (Y Int) (Z Int) (A1 Int) (B1 Int) (C1 Int) (D1 Int) (E1 Int) (F1 Int) (G1 Int) (H1 Bool) ) 
    (=>
      (and
        (ULTIMATE.start_L2
  A
  B
  C
  D
  E
  F
  G
  H
  I
  J
  K
  L
  M
  N
  O
  P
  Q
  R
  S
  T
  U
  V
  W
  X
  Y
  Z
  A1
  B1
  C1
  D1
  E1
  F1
  G1
  H1)
        (or H1 (not (= 0 P)))
      )
      (ULTIMATE.start_L2-3
  A
  B
  C
  D
  E
  F
  G
  H
  I
  J
  K
  L
  M
  N
  O
  P
  Q
  R
  S
  T
  U
  V
  W
  X
  Y
  Z
  A1
  B1
  C1
  D1
  E1
  F1
  G1
  H1)
    )
  )
)
(assert
  (forall ( (A Int) (B (Array Int Int)) (C (Array Int Int)) (D (Array Int (Array Int Int))) (E (Array Int (Array Int Int))) (F Int) (G Int) (H (Array Int Int)) (I (Array Int Int)) (J Int) (K Int) (L Int) (M Int) (N Int) (O Int) (P Int) (Q Int) (R Int) (S Int) (T Int) (U Int) (V Int) (W Int) (X Int) (Y Int) (Z Int) (A1 Int) (B1 Int) (C1 Int) (D1 Int) (E1 Int) (F1 Int) (G1 Int) (H1 Bool) (I1 Int) ) 
    (=>
      (and
        (ULTIMATE.start_L23
  A
  B
  C
  D
  E
  F
  G
  H
  I
  J
  K
  L
  M
  N
  O
  P
  Q
  R
  I1
  T
  U
  V
  W
  X
  Y
  Z
  A1
  B1
  C1
  D1
  E1
  F1
  G1
  H1)
        (or H1 (= S D1))
      )
      (ULTIMATE.start_ULTIMATE.startFINAL
  A
  B
  C
  D
  E
  F
  G
  H
  I
  J
  K
  L
  M
  N
  O
  P
  Q
  R
  S
  T
  U
  V
  W
  X
  Y
  Z
  A1
  B1
  C1
  D1
  E1
  F1
  G1
  H1)
    )
  )
)
(assert
  (forall ( (A Int) (B (Array Int Int)) (C (Array Int Int)) (D (Array Int (Array Int Int))) (E (Array Int (Array Int Int))) (F Int) (G Int) (H (Array Int Int)) (I (Array Int Int)) (J Int) (K Int) (L Int) (M Int) (N Int) (O Int) (P Int) (Q Int) (R Int) (S Int) (T Int) (U Int) (V Int) (W Int) (X Int) (Y Int) (Z Int) (A1 Int) (B1 Int) (C1 Int) (D1 Int) (E1 Int) (F1 Int) (G1 Int) (H1 Bool) (I1 Bool) ) 
    (=>
      (and
        (ULTIMATE.start_L2-1
  A
  B
  C
  D
  E
  F
  G
  H
  I
  J
  K
  L
  M
  N
  O
  P
  Q
  R
  S
  T
  U
  V
  W
  X
  Y
  Z
  A1
  B1
  C1
  D1
  E1
  F1
  G1
  I1)
        (= H1 true)
      )
      (ULTIMATE.start_ULTIMATE.startEXIT
  A
  B
  C
  D
  E
  F
  G
  H
  I
  J
  K
  L
  M
  N
  O
  P
  Q
  R
  S
  T
  U
  V
  W
  X
  Y
  Z
  A1
  B1
  C1
  D1
  E1
  F1
  G1
  H1)
    )
  )
)
(assert
  (forall ( (A Int) (B (Array Int Int)) (C (Array Int Int)) (D (Array Int (Array Int Int))) (E (Array Int (Array Int Int))) (F Int) (G Int) (H (Array Int Int)) (I (Array Int Int)) (J Int) (K Int) (L Int) (M Int) (N Int) (O Int) (P Int) (Q Int) (R Int) (S Int) (T Int) (U Int) (V Int) (W Int) (X Int) (Y Int) (Z Int) (A1 Int) (B1 Int) (C1 Int) (D1 Int) (E1 Int) (F1 Int) (G1 Int) (H1 Bool) ) 
    (=>
      (and
        (ULTIMATE.start_L2-1
  A
  B
  C
  D
  E
  F
  G
  H
  I
  J
  K
  L
  M
  N
  O
  P
  Q
  R
  S
  T
  U
  V
  W
  X
  Y
  Z
  A1
  B1
  C1
  D1
  E1
  F1
  G1
  H1)
        (= H1 true)
      )
      (ULTIMATE.start_L2-3
  A
  B
  C
  D
  E
  F
  G
  H
  I
  J
  K
  L
  M
  N
  O
  P
  Q
  R
  S
  T
  U
  V
  W
  X
  Y
  Z
  A1
  B1
  C1
  D1
  E1
  F1
  G1
  H1)
    )
  )
)
(assert
  (forall ( (A Int) (B (Array Int Int)) (C (Array Int Int)) (D (Array Int (Array Int Int))) (E (Array Int (Array Int Int))) (F Int) (G Int) (H (Array Int Int)) (I (Array Int Int)) (J Int) (K Int) (L Int) (M Int) (N Int) (O Int) (P Int) (Q Int) (R Int) (S Int) (T Int) (U Int) (V Int) (W Int) (X Int) (Y Int) (Z Int) (A1 Int) (B1 Int) (C1 Int) (D1 Int) (E1 Int) (F1 Int) (G1 Int) (H1 Bool) (I1 Int) (J1 Int) ) 
    (=>
      (and
        (ULTIMATE.start_L2-3
  A
  B
  C
  D
  E
  F
  G
  H
  I
  J
  K
  L
  M
  N
  O
  P
  Q
  R
  S
  T
  U
  V
  W
  X
  Y
  I1
  J1
  B1
  C1
  D1
  E1
  F1
  G1
  H1)
        true
      )
      (ULTIMATE.start_L20-2
  A
  B
  C
  D
  E
  F
  G
  H
  I
  J
  K
  L
  M
  N
  O
  P
  Q
  R
  S
  T
  U
  V
  W
  X
  Y
  Z
  A1
  B1
  C1
  D1
  E1
  F1
  G1
  H1)
    )
  )
)
(assert
  (forall ( (A Int) (B (Array Int Int)) (C (Array Int Int)) (D (Array Int (Array Int Int))) (E (Array Int (Array Int Int))) (F Int) (G Int) (H (Array Int Int)) (I (Array Int Int)) (J Int) (K Int) (L Int) (M Int) (N Int) (O Int) (P Int) (Q Int) (R Int) (S Int) (T Int) (U Int) (V Int) (W Int) (X Int) (Y Int) (Z Int) (A1 Int) (B1 Int) (C1 Int) (D1 Int) (E1 Int) (F1 Int) (G1 Int) (H1 Bool) ) 
    (=>
      (and
        (ULTIMATE.start_ULTIMATE.startFINAL
  A
  B
  C
  D
  E
  F
  G
  H
  I
  J
  K
  L
  M
  N
  O
  P
  Q
  R
  S
  T
  U
  V
  W
  X
  Y
  Z
  A1
  B1
  C1
  D1
  E1
  F1
  G1
  H1)
        true
      )
      (ULTIMATE.start_ULTIMATE.startEXIT
  A
  B
  C
  D
  E
  F
  G
  H
  I
  J
  K
  L
  M
  N
  O
  P
  Q
  R
  S
  T
  U
  V
  W
  X
  Y
  Z
  A1
  B1
  C1
  D1
  E1
  F1
  G1
  H1)
    )
  )
)
(assert
  (forall ( (A Int) (B (Array Int Int)) (C (Array Int Int)) (D (Array Int (Array Int Int))) (E (Array Int (Array Int Int))) (F Int) (G Int) (H (Array Int Int)) (I (Array Int Int)) (J Int) (K Int) (L Int) (M Int) (N Int) (O Int) (P Int) (Q Int) (R Int) (S Int) (T Int) (U Int) (V Int) (W Int) (X Int) (Y Int) (Z Int) (A1 Int) (B1 Int) (C1 Int) (D1 Int) (E1 Int) (F1 Int) (G1 Int) (H1 Bool) (I1 Int) (J1 Int) ) 
    (=>
      (and
        (ULTIMATE.start_L20-2
  A
  B
  C
  D
  E
  F
  G
  H
  I
  J
  K
  L
  M
  N
  O
  P
  Q
  R
  S
  T
  I1
  V
  J1
  X
  Y
  Z
  A1
  B1
  C1
  D1
  E1
  F1
  G1
  H1)
        (or H1 (= W (+ 1 J1)))
      )
      (ULTIMATE.start_L20-3
  A
  B
  C
  D
  E
  F
  G
  H
  I
  J
  K
  L
  M
  N
  O
  P
  Q
  R
  S
  T
  U
  V
  W
  X
  Y
  Z
  A1
  B1
  C1
  D1
  E1
  F1
  G1
  H1)
    )
  )
)
(assert
  (forall ( (A Int) (B (Array Int Int)) (C (Array Int Int)) (D (Array Int (Array Int Int))) (E (Array Int (Array Int Int))) (F Int) (G Int) (H (Array Int Int)) (I (Array Int Int)) (J Int) (K Int) (L Int) (M Int) (N Int) (O Int) (P Int) (Q Int) (R Int) (S Int) (T Int) (U Int) (V Int) (W Int) (X Int) (Y Int) (Z Int) (A1 Int) (B1 Int) (C1 Int) (D1 Int) (E1 Int) (F1 Int) (G1 Int) (H1 Bool) ) 
    (=>
      (and
        (and (= I H) (= B C) (= F G) (= K J) (not H1) (= D E))
      )
      (ULTIMATE.start_ULTIMATE.startENTRY
  A
  B
  C
  D
  E
  F
  G
  H
  I
  J
  K
  L
  M
  N
  O
  P
  Q
  R
  S
  T
  U
  V
  W
  X
  Y
  Z
  A1
  B1
  C1
  D1
  E1
  F1
  G1
  H1)
    )
  )
)
(assert
  (forall ( (A Int) (B (Array Int Int)) (C (Array Int Int)) (D (Array Int (Array Int Int))) (E (Array Int (Array Int Int))) (F Int) (G Int) (H (Array Int Int)) (I (Array Int Int)) (J Int) (K Int) (L Int) (M Int) (N Int) (O Int) (P Int) (Q Int) (R Int) (S Int) (T Int) (U Int) (V Int) (W Int) (X Int) (Y Int) (Z Int) (A1 Int) (B1 Int) (C1 Int) (D1 Int) (E1 Int) (F1 Int) (G1 Int) (H1 Bool) ) 
    (=>
      (and
        (ULTIMATE.start_ULTIMATE.startEXIT
  A
  B
  C
  D
  E
  F
  G
  H
  I
  J
  K
  L
  M
  N
  O
  P
  Q
  R
  S
  T
  U
  V
  W
  X
  Y
  Z
  A1
  B1
  C1
  D1
  E1
  F1
  G1
  H1)
        (= H1 true)
      )
      false
    )
  )
)

(check-sat)
(exit)
